maximize
0.2V(0,1) + 0.2V(0,2) + 0.2V(0,3) + 0.2V(0,4)
subject to
V(0,1) - 1F(0,1) - 0F(0,2) - 0F(0,3) - 0F(0,4) - 0F(0,5) - V(6,1) <= 0
V(0,2) - 0F(0,1) - 1F(0,2) - 0F(0,3) - 0F(0,4) - 0F(0,5) - V(6,2) <= 0
V(0,3) - 0F(0,1) - 0F(0,2) - 1F(0,3) - 0F(0,4) - 0F(0,5) - V(6,3) <= 0
V(0,4) - 0F(0,1) - 0F(0,2) - 0F(0,3) - 1F(0,4) - 0F(0,5) - V(6,4) <= 0
V(0,5) - 0F(0,1) - 0F(0,2) - 0F(0,3) - 0F(0,4) - 1F(0,5) - V(6,5) <= 0
V(0,1) - 1F(0,1) - 0F(0,2) - 0F(0,3) - 0F(0,4) - 0F(0,5) - V(17,1) <= 0
V(0,2) - 0F(0,1) - 1F(0,2) - 0F(0,3) - 0F(0,4) - 0F(0,5) - V(17,2) <= 0
V(0,3) - 0F(0,1) - 0F(0,2) - 1F(0,3) - 0F(0,4) - 0F(0,5) - V(17,3) <= 0
V(0,4) - 0F(0,1) - 0F(0,2) - 0F(0,3) - 1F(0,4) - 0F(0,5) - V(17,4) <= 0
V(0,5) - 0F(0,1) - 0F(0,2) - 0F(0,3) - 0F(0,4) - 1F(0,5) - V(17,5) <= 0
V(0,1) - 1F(0,1) - 0F(0,2) - 0F(0,3) - 0F(0,4) - 0F(0,5) - V(16,1) <= 0
V(0,2) - 0F(0,1) - 1F(0,2) - 0F(0,3) - 0F(0,4) - 0F(0,5) - V(16,2) <= 0
V(0,3) - 0F(0,1) - 0F(0,2) - 1F(0,3) - 0F(0,4) - 0F(0,5) - V(16,3) <= 0
V(0,4) - 0F(0,1) - 0F(0,2) - 0F(0,3) - 1F(0,4) - 0F(0,5) - V(16,4) <= 0
V(0,5) - 0F(0,1) - 0F(0,2) - 0F(0,3) - 0F(0,4) - 1F(0,5) - V(16,5) <= 0
V(6,1) - 1F(6,1) - 0F(6,2) - 0F(6,3) - 0F(6,4) - 0F(6,5) - V(7,1) <= 0
V(6,2) - 0F(6,1) - 1F(6,2) - 0F(6,3) - 0F(6,4) - 0F(6,5) - V(7,2) <= 0
V(6,3) - 0F(6,1) - 0F(6,2) - 1F(6,3) - 0F(6,4) - 0F(6,5) - V(7,3) <= 0
V(6,4) - 0F(6,1) - 0F(6,2) - 0F(6,3) - 1F(6,4) - 0F(6,5) - V(7,4) <= 0
V(6,5) - 0F(6,1) - 0F(6,2) - 0F(6,3) - 0F(6,4) - 1F(6,5) - V(7,5) <= 0
V(7,1) - 1F(7,1) - 0F(7,2) - 0F(7,3) - 0F(7,4) - 0F(7,5) - V(8,1) <= 0
V(7,2) - 0F(7,1) - 1F(7,2) - 0F(7,3) - 0F(7,4) - 0F(7,5) - V(8,2) <= 0
V(7,3) - 0F(7,1) - 0F(7,2) - 1F(7,3) - 0F(7,4) - 0F(7,5) - V(8,3) <= 0
V(7,4) - 0F(7,1) - 0F(7,2) - 0F(7,3) - 1F(7,4) - 0F(7,5) - V(8,4) <= 0
V(7,5) - 0F(7,1) - 0F(7,2) - 0F(7,3) - 0F(7,4) - 1F(7,5) - V(8,5) <= 0
V(8,1) - 1F(8,1) - 0F(8,2) - 0F(8,3) - 0F(8,4) - 0F(8,5) - V(2,1) <= 0
V(8,2) - 0F(8,1) - 1F(8,2) - 0F(8,3) - 0F(8,4) - 0F(8,5) - V(2,2) <= 0
V(8,3) - 0F(8,1) - 0F(8,2) - 1F(8,3) - 0F(8,4) - 0F(8,5) - V(2,3) <= 0
V(8,4) - 0F(8,1) - 0F(8,2) - 0F(8,3) - 1F(8,4) - 0F(8,5) - V(2,4) <= 0
V(8,5) - 0F(8,1) - 0F(8,2) - 0F(8,3) - 0F(8,4) - 1F(8,5) - V(2,5) <= 0
V(2,1) - 1F(2,1) - 0F(2,2) - 0F(2,3) - 0F(2,4) - 0F(2,5) - V(9,1) <= 0
V(2,2) = 0
V(2,3) - 0F(2,1) - 0F(2,2) - 1F(2,3) - 0F(2,4) - 0F(2,5) - V(9,3) <= 0
V(2,4) - 0F(2,1) - 0F(2,2) - 0F(2,3) - 1F(2,4) - 0F(2,5) - V(9,4) <= 0
V(2,5) - 0F(2,1) - 0F(2,2) - 0F(2,3) - 0F(2,4) - 1F(2,5) - V(9,5) <= 0
V(9,1) - 1F(9,1) - 0F(9,2) - 0F(9,3) - 0F(9,4) - 0F(9,5) - V(10,1) <= 0
V(9,2) - 0F(9,1) - 1F(9,2) - 0F(9,3) - 0F(9,4) - 0F(9,5) - V(10,2) <= 0
V(9,3) - 0F(9,1) - 0F(9,2) - 1F(9,3) - 0F(9,4) - 0F(9,5) - V(10,3) <= 0
V(9,4) - 0F(9,1) - 0F(9,2) - 0F(9,3) - 1F(9,4) - 0F(9,5) - V(10,4) <= 0
V(9,5) - 0F(9,1) - 0F(9,2) - 0F(9,3) - 0F(9,4) - 1F(9,5) - V(10,5) <= 0
V(10,1) - 1F(10,1) - 0F(10,2) - 0F(10,3) - 0F(10,4) - 0F(10,5) - V(11,1) <= 0
V(10,2) - 0F(10,1) - 1F(10,2) - 0F(10,3) - 0F(10,4) - 0F(10,5) - V(11,2) <= 0
V(10,3) - 0F(10,1) - 0F(10,2) - 1F(10,3) - 0F(10,4) - 0F(10,5) - V(11,3) <= 0
V(10,4) - 0F(10,1) - 0F(10,2) - 0F(10,3) - 1F(10,4) - 0F(10,5) - V(11,4) <= 0
V(10,5) - 0F(10,1) - 0F(10,2) - 0F(10,3) - 0F(10,4) - 1F(10,5) - V(11,5) <= 0
V(11,1) - 1F(11,1) - 0F(11,2) - 0F(11,3) - 0F(11,4) - 0F(11,5) - V(12,1) <= 0
V(11,2) - 0F(11,1) - 1F(11,2) - 0F(11,3) - 0F(11,4) - 0F(11,5) - V(12,2) <= 0
V(11,3) - 0F(11,1) - 0F(11,2) - 1F(11,3) - 0F(11,4) - 0F(11,5) - V(12,3) <= 0
V(11,4) - 0F(11,1) - 0F(11,2) - 0F(11,3) - 1F(11,4) - 0F(11,5) - V(12,4) <= 0
V(11,5) - 0F(11,1) - 0F(11,2) - 0F(11,3) - 0F(11,4) - 1F(11,5) - V(12,5) <= 0
V(12,1) - 1F(12,1) - 0F(12,2) - 0F(12,3) - 0F(12,4) - 0F(12,5) - V(13,1) <= 0
V(12,2) - 0F(12,1) - 1F(12,2) - 0F(12,3) - 0F(12,4) - 0F(12,5) - V(13,2) <= 0
V(12,3) - 0F(12,1) - 0F(12,2) - 1F(12,3) - 0F(12,4) - 0F(12,5) - V(13,3) <= 0
V(12,4) - 0F(12,1) - 0F(12,2) - 0F(12,3) - 1F(12,4) - 0F(12,5) - V(13,4) <= 0
V(12,5) - 0F(12,1) - 0F(12,2) - 0F(12,3) - 0F(12,4) - 1F(12,5) - V(13,5) <= 0
V(13,1) - 1F(13,1) - 0F(13,2) - 0F(13,3) - 0F(13,4) - 0F(13,5) - V(4,1) <= 0
V(13,2) - 0F(13,1) - 1F(13,2) - 0F(13,3) - 0F(13,4) - 0F(13,5) - V(4,2) <= 0
V(13,3) - 0F(13,1) - 0F(13,2) - 1F(13,3) - 0F(13,4) - 0F(13,5) - V(4,3) <= 0
V(13,4) - 0F(13,1) - 0F(13,2) - 0F(13,3) - 1F(13,4) - 0F(13,5) - V(4,4) <= 0
V(13,5) - 0F(13,1) - 0F(13,2) - 0F(13,3) - 0F(13,4) - 1F(13,5) - V(4,5) <= 0
V(17,1) - 1F(17,1) - 0F(17,2) - 0F(17,3) - 0F(17,4) - 0F(17,5) - V(18,1) <= 0
V(17,2) - 0F(17,1) - 1F(17,2) - 0F(17,3) - 0F(17,4) - 0F(17,5) - V(18,2) <= 0
V(17,3) - 0F(17,1) - 0F(17,2) - 1F(17,3) - 0F(17,4) - 0F(17,5) - V(18,3) <= 0
V(17,4) - 0F(17,1) - 0F(17,2) - 0F(17,3) - 1F(17,4) - 0F(17,5) - V(18,4) <= 0
V(17,5) - 0F(17,1) - 0F(17,2) - 0F(17,3) - 0F(17,4) - 1F(17,5) - V(18,5) <= 0
V(18,1) - 1F(18,1) - 0F(18,2) - 0F(18,3) - 0F(18,4) - 0F(18,5) - V(19,1) <= 0
V(18,2) - 0F(18,1) - 1F(18,2) - 0F(18,3) - 0F(18,4) - 0F(18,5) - V(19,2) <= 0
V(18,3) - 0F(18,1) - 0F(18,2) - 1F(18,3) - 0F(18,4) - 0F(18,5) - V(19,3) <= 0
V(18,4) - 0F(18,1) - 0F(18,2) - 0F(18,3) - 1F(18,4) - 0F(18,5) - V(19,4) <= 0
V(18,5) - 0F(18,1) - 0F(18,2) - 0F(18,3) - 0F(18,4) - 1F(18,5) - V(19,5) <= 0
V(19,1) - 1F(19,1) - 0F(19,2) - 0F(19,3) - 0F(19,4) - 0F(19,5) - V(20,1) <= 0
V(19,2) - 0F(19,1) - 1F(19,2) - 0F(19,3) - 0F(19,4) - 0F(19,5) - V(20,2) <= 0
V(19,3) - 0F(19,1) - 0F(19,2) - 1F(19,3) - 0F(19,4) - 0F(19,5) - V(20,3) <= 0
V(19,4) - 0F(19,1) - 0F(19,2) - 0F(19,3) - 1F(19,4) - 0F(19,5) - V(20,4) <= 0
V(19,5) - 0F(19,1) - 0F(19,2) - 0F(19,3) - 0F(19,4) - 1F(19,5) - V(20,5) <= 0
V(19,1) - 1F(19,1) - 0F(19,2) - 0F(19,3) - 0F(19,4) - 0F(19,5) - V(23,1) <= 0
V(19,2) - 0F(19,1) - 1F(19,2) - 0F(19,3) - 0F(19,4) - 0F(19,5) - V(23,2) <= 0
V(19,3) - 0F(19,1) - 0F(19,2) - 1F(19,3) - 0F(19,4) - 0F(19,5) - V(23,3) <= 0
V(19,4) - 0F(19,1) - 0F(19,2) - 0F(19,3) - 1F(19,4) - 0F(19,5) - V(23,4) <= 0
V(19,5) - 0F(19,1) - 0F(19,2) - 0F(19,3) - 0F(19,4) - 1F(19,5) - V(23,5) <= 0
V(20,1) - 1F(20,1) - 0F(20,2) - 0F(20,3) - 0F(20,4) - 0F(20,5) - V(21,1) <= 0
V(20,2) - 0F(20,1) - 1F(20,2) - 0F(20,3) - 0F(20,4) - 0F(20,5) - V(21,2) <= 0
V(20,3) - 0F(20,1) - 0F(20,2) - 1F(20,3) - 0F(20,4) - 0F(20,5) - V(21,3) <= 0
V(20,4) - 0F(20,1) - 0F(20,2) - 0F(20,3) - 1F(20,4) - 0F(20,5) - V(21,4) <= 0
V(20,5) - 0F(20,1) - 0F(20,2) - 0F(20,3) - 0F(20,4) - 1F(20,5) - V(21,5) <= 0
V(21,1) - 1F(21,1) - 0F(21,2) - 0F(21,3) - 0F(21,4) - 0F(21,5) - V(1,1) <= 0
V(21,2) - 0F(21,1) - 1F(21,2) - 0F(21,3) - 0F(21,4) - 0F(21,5) - V(1,2) <= 0
V(21,3) - 0F(21,1) - 0F(21,2) - 1F(21,3) - 0F(21,4) - 0F(21,5) - V(1,3) <= 0
V(21,4) - 0F(21,1) - 0F(21,2) - 0F(21,3) - 1F(21,4) - 0F(21,5) - V(1,4) <= 0
V(21,5) - 0F(21,1) - 0F(21,2) - 0F(21,3) - 0F(21,4) - 1F(21,5) - V(1,5) <= 0
V(21,1) - 1F(21,1) - 0F(21,2) - 0F(21,3) - 0F(21,4) - 0F(21,5) - V(22,1) <= 0
V(21,2) - 0F(21,1) - 1F(21,2) - 0F(21,3) - 0F(21,4) - 0F(21,5) - V(22,2) <= 0
V(21,3) - 0F(21,1) - 0F(21,2) - 1F(21,3) - 0F(21,4) - 0F(21,5) - V(22,3) <= 0
V(21,4) - 0F(21,1) - 0F(21,2) - 0F(21,3) - 1F(21,4) - 0F(21,5) - V(22,4) <= 0
V(21,5) - 0F(21,1) - 0F(21,2) - 0F(21,3) - 0F(21,4) - 1F(21,5) - V(22,5) <= 0
V(22,1) - 1F(22,1) - 0F(22,2) - 0F(22,3) - 0F(22,4) - 0F(22,5) - V(23,1) <= 0
V(22,2) - 0F(22,1) - 1F(22,2) - 0F(22,3) - 0F(22,4) - 0F(22,5) - V(23,2) <= 0
V(22,3) - 0F(22,1) - 0F(22,2) - 1F(22,3) - 0F(22,4) - 0F(22,5) - V(23,3) <= 0
V(22,4) - 0F(22,1) - 0F(22,2) - 0F(22,3) - 1F(22,4) - 0F(22,5) - V(23,4) <= 0
V(22,5) - 0F(22,1) - 0F(22,2) - 0F(22,3) - 0F(22,4) - 1F(22,5) - V(23,5) <= 0
V(23,1) - 1F(23,1) - 0F(23,2) - 0F(23,3) - 0F(23,4) - 0F(23,5) - V(29,1) <= 0
V(23,2) - 0F(23,1) - 1F(23,2) - 0F(23,3) - 0F(23,4) - 0F(23,5) - V(29,2) <= 0
V(23,3) - 0F(23,1) - 0F(23,2) - 1F(23,3) - 0F(23,4) - 0F(23,5) - V(29,3) <= 0
V(23,4) - 0F(23,1) - 0F(23,2) - 0F(23,3) - 1F(23,4) - 0F(23,5) - V(29,4) <= 0
V(23,5) - 0F(23,1) - 0F(23,2) - 0F(23,3) - 0F(23,4) - 1F(23,5) - V(29,5) <= 0
V(17,1) - 1F(17,1) - 0F(17,2) - 0F(17,3) - 0F(17,4) - 0F(17,5) - V(24,1) <= 0
V(17,2) - 0F(17,1) - 1F(17,2) - 0F(17,3) - 0F(17,4) - 0F(17,5) - V(24,2) <= 0
V(17,3) - 0F(17,1) - 0F(17,2) - 1F(17,3) - 0F(17,4) - 0F(17,5) - V(24,3) <= 0
V(17,4) - 0F(17,1) - 0F(17,2) - 0F(17,3) - 1F(17,4) - 0F(17,5) - V(24,4) <= 0
V(17,5) - 0F(17,1) - 0F(17,2) - 0F(17,3) - 0F(17,4) - 1F(17,5) - V(24,5) <= 0
V(24,1) - 1F(24,1) - 0F(24,2) - 0F(24,3) - 0F(24,4) - 0F(24,5) - V(25,1) <= 0
V(24,2) - 0F(24,1) - 1F(24,2) - 0F(24,3) - 0F(24,4) - 0F(24,5) - V(25,2) <= 0
V(24,3) - 0F(24,1) - 0F(24,2) - 1F(24,3) - 0F(24,4) - 0F(24,5) - V(25,3) <= 0
V(24,4) - 0F(24,1) - 0F(24,2) - 0F(24,3) - 1F(24,4) - 0F(24,5) - V(25,4) <= 0
V(24,5) - 0F(24,1) - 0F(24,2) - 0F(24,3) - 0F(24,4) - 1F(24,5) - V(25,5) <= 0
V(25,1) - 1F(25,1) - 0F(25,2) - 0F(25,3) - 0F(25,4) - 0F(25,5) - V(29,1) <= 0
V(25,2) - 0F(25,1) - 1F(25,2) - 0F(25,3) - 0F(25,4) - 0F(25,5) - V(29,2) <= 0
V(25,3) - 0F(25,1) - 0F(25,2) - 1F(25,3) - 0F(25,4) - 0F(25,5) - V(29,3) <= 0
V(25,4) - 0F(25,1) - 0F(25,2) - 0F(25,3) - 1F(25,4) - 0F(25,5) - V(29,4) <= 0
V(25,5) - 0F(25,1) - 0F(25,2) - 0F(25,3) - 0F(25,4) - 1F(25,5) - V(29,5) <= 0
V(29,1) - 1F(29,1) - 0F(29,2) - 0F(29,3) - 0F(29,4) - 0F(29,5) - V(28,1) <= 0
V(29,2) - 0F(29,1) - 1F(29,2) - 0F(29,3) - 0F(29,4) - 0F(29,5) - V(28,2) <= 0
V(29,3) - 0F(29,1) - 0F(29,2) - 1F(29,3) - 0F(29,4) - 0F(29,5) - V(28,3) <= 0
V(29,4) - 0F(29,1) - 0F(29,2) - 0F(29,3) - 1F(29,4) - 0F(29,5) - V(28,4) <= 0
V(29,5) - 0F(29,1) - 0F(29,2) - 0F(29,3) - 0F(29,4) - 1F(29,5) - V(28,5) <= 0
V(28,1) - 1F(28,1) - 0F(28,2) - 0F(28,3) - 0F(28,4) - 0F(28,5) - V(27,1) <= 0
V(28,2) - 0F(28,1) - 1F(28,2) - 0F(28,3) - 0F(28,4) - 0F(28,5) - V(27,2) <= 0
V(28,3) - 0F(28,1) - 0F(28,2) - 1F(28,3) - 0F(28,4) - 0F(28,5) - V(27,3) <= 0
V(28,4) - 0F(28,1) - 0F(28,2) - 0F(28,3) - 1F(28,4) - 0F(28,5) - V(27,4) <= 0
V(28,5) - 0F(28,1) - 0F(28,2) - 0F(28,3) - 0F(28,4) - 1F(28,5) - V(27,5) <= 0
V(27,1) - 1F(27,1) - 0F(27,2) - 0F(27,3) - 0F(27,4) - 0F(27,5) - V(26,1) <= 0
V(27,2) - 0F(27,1) - 1F(27,2) - 0F(27,3) - 0F(27,4) - 0F(27,5) - V(26,2) <= 0
V(27,3) - 0F(27,1) - 0F(27,2) - 1F(27,3) - 0F(27,4) - 0F(27,5) - V(26,3) <= 0
V(27,4) - 0F(27,1) - 0F(27,2) - 0F(27,3) - 1F(27,4) - 0F(27,5) - V(26,4) <= 0
V(27,5) - 0F(27,1) - 0F(27,2) - 0F(27,3) - 0F(27,4) - 1F(27,5) - V(26,5) <= 0
V(27,1) - 1F(27,1) - 0F(27,2) - 0F(27,3) - 0F(27,4) - 0F(27,5) - V(5,1) <= 0
V(27,2) - 0F(27,1) - 1F(27,2) - 0F(27,3) - 0F(27,4) - 0F(27,5) - V(5,2) <= 0
V(27,3) - 0F(27,1) - 0F(27,2) - 1F(27,3) - 0F(27,4) - 0F(27,5) - V(5,3) <= 0
V(27,4) - 0F(27,1) - 0F(27,2) - 0F(27,3) - 1F(27,4) - 0F(27,5) - V(5,4) <= 0
V(27,5) - 0F(27,1) - 0F(27,2) - 0F(27,3) - 0F(27,4) - 1F(27,5) - V(5,5) <= 0
V(16,1) - 1F(16,1) - 0F(16,2) - 0F(16,3) - 0F(16,4) - 0F(16,5) - V(15,1) <= 0
V(16,2) - 0F(16,1) - 1F(16,2) - 0F(16,3) - 0F(16,4) - 0F(16,5) - V(15,2) <= 0
V(16,3) - 0F(16,1) - 0F(16,2) - 1F(16,3) - 0F(16,4) - 0F(16,5) - V(15,3) <= 0
V(16,4) - 0F(16,1) - 0F(16,2) - 0F(16,3) - 1F(16,4) - 0F(16,5) - V(15,4) <= 0
V(16,5) - 0F(16,1) - 0F(16,2) - 0F(16,3) - 0F(16,4) - 1F(16,5) - V(15,5) <= 0
V(15,1) - 1F(15,1) - 0F(15,2) - 0F(15,3) - 0F(15,4) - 0F(15,5) - V(14,1) <= 0
V(15,2) - 0F(15,1) - 1F(15,2) - 0F(15,3) - 0F(15,4) - 0F(15,5) - V(14,2) <= 0
V(15,3) - 0F(15,1) - 0F(15,2) - 1F(15,3) - 0F(15,4) - 0F(15,5) - V(14,3) <= 0
V(15,4) - 0F(15,1) - 0F(15,2) - 0F(15,3) - 1F(15,4) - 0F(15,5) - V(14,4) <= 0
V(15,5) - 0F(15,1) - 0F(15,2) - 0F(15,3) - 0F(15,4) - 1F(15,5) - V(14,5) <= 0
V(14,1) - 1F(14,1) - 0F(14,2) - 0F(14,3) - 0F(14,4) - 0F(14,5) - V(4,1) <= 0
V(14,2) - 0F(14,1) - 1F(14,2) - 0F(14,3) - 0F(14,4) - 0F(14,5) - V(4,2) <= 0
V(14,3) - 0F(14,1) - 0F(14,2) - 1F(14,3) - 0F(14,4) - 0F(14,5) - V(4,3) <= 0
V(14,4) - 0F(14,1) - 0F(14,2) - 0F(14,3) - 1F(14,4) - 0F(14,5) - V(4,4) <= 0
V(14,5) - 0F(14,1) - 0F(14,2) - 0F(14,3) - 0F(14,4) - 1F(14,5) - V(4,5) <= 0
V(28,1) - 1F(28,1) - 0F(28,2) - 0F(28,3) - 0F(28,4) - 0F(28,5) - V(31,1) <= 0
V(28,2) - 0F(28,1) - 1F(28,2) - 0F(28,3) - 0F(28,4) - 0F(28,5) - V(31,2) <= 0
V(28,3) - 0F(28,1) - 0F(28,2) - 1F(28,3) - 0F(28,4) - 0F(28,5) - V(31,3) <= 0
V(28,4) - 0F(28,1) - 0F(28,2) - 0F(28,3) - 1F(28,4) - 0F(28,5) - V(31,4) <= 0
V(28,5) - 0F(28,1) - 0F(28,2) - 0F(28,3) - 0F(28,4) - 1F(28,5) - V(31,5) <= 0
V(31,1) - 1F(31,1) - 0F(31,2) - 0F(31,3) - 0F(31,4) - 0F(31,5) - V(4,1) <= 0
V(31,2) - 0F(31,1) - 1F(31,2) - 0F(31,3) - 0F(31,4) - 0F(31,5) - V(4,2) <= 0
V(31,3) - 0F(31,1) - 0F(31,2) - 1F(31,3) - 0F(31,4) - 0F(31,5) - V(4,3) <= 0
V(31,4) - 0F(31,1) - 0F(31,2) - 0F(31,3) - 1F(31,4) - 0F(31,5) - V(4,4) <= 0
V(31,5) - 0F(31,1) - 0F(31,2) - 0F(31,3) - 0F(31,4) - 1F(31,5) - V(4,5) <= 0
V(22,1) - 1F(22,1) - 0F(22,2) - 0F(22,3) - 0F(22,4) - 0F(22,5) - V(30,1) <= 0
V(22,2) - 0F(22,1) - 1F(22,2) - 0F(22,3) - 0F(22,4) - 0F(22,5) - V(30,2) <= 0
V(22,3) - 0F(22,1) - 0F(22,2) - 1F(22,3) - 0F(22,4) - 0F(22,5) - V(30,3) <= 0
V(22,4) - 0F(22,1) - 0F(22,2) - 0F(22,3) - 1F(22,4) - 0F(22,5) - V(30,4) <= 0
V(22,5) - 0F(22,1) - 0F(22,2) - 0F(22,3) - 0F(22,4) - 1F(22,5) - V(30,5) <= 0
V(30,1) - 1F(30,1) - 0F(30,2) - 0F(30,3) - 0F(30,4) - 0F(30,5) - V(2,1) <= 0
V(30,2) - 0F(30,1) - 1F(30,2) - 0F(30,3) - 0F(30,4) - 0F(30,5) - V(2,2) <= 0
V(30,3) - 0F(30,1) - 0F(30,2) - 1F(30,3) - 0F(30,4) - 0F(30,5) - V(2,3) <= 0
V(30,4) - 0F(30,1) - 0F(30,2) - 0F(30,3) - 1F(30,4) - 0F(30,5) - V(2,4) <= 0
V(30,5) - 0F(30,1) - 0F(30,2) - 0F(30,3) - 0F(30,4) - 1F(30,5) - V(2,5) <= 0
V(11,1) - 1F(11,1) - 0F(11,2) - 0F(11,3) - 0F(11,4) - 0F(11,5) - V(3,1) <= 0
V(11,2) - 0F(11,1) - 1F(11,2) - 0F(11,3) - 0F(11,4) - 0F(11,5) - V(3,2) <= 0
V(11,3) - 0F(11,1) - 0F(11,2) - 1F(11,3) - 0F(11,4) - 0F(11,5) - V(3,3) <= 0
V(11,4) - 0F(11,1) - 0F(11,2) - 0F(11,3) - 1F(11,4) - 0F(11,5) - V(3,4) <= 0
V(11,5) - 0F(11,1) - 0F(11,2) - 0F(11,3) - 0F(11,4) - 1F(11,5) - V(3,5) <= 0
V(22,1) - 1F(22,1) - 0F(22,2) - 0F(22,3) - 0F(22,4) - 0F(22,5) - V(32,1) <= 0
V(22,2) - 0F(22,1) - 1F(22,2) - 0F(22,3) - 0F(22,4) - 0F(22,5) - V(32,2) <= 0
V(22,3) - 0F(22,1) - 0F(22,2) - 1F(22,3) - 0F(22,4) - 0F(22,5) - V(32,3) <= 0
V(22,4) - 0F(22,1) - 0F(22,2) - 0F(22,3) - 1F(22,4) - 0F(22,5) - V(32,4) <= 0
V(22,5) - 0F(22,1) - 0F(22,2) - 0F(22,3) - 0F(22,4) - 1F(22,5) - V(32,5) <= 0
V(32,1) - 1F(32,1) - 0F(32,2) - 0F(32,3) - 0F(32,4) - 0F(32,5) - V(1,1) <= 0
V(32,2) - 0F(32,1) - 1F(32,2) - 0F(32,3) - 0F(32,4) - 0F(32,5) - V(1,2) <= 0
V(32,3) - 0F(32,1) - 0F(32,2) - 1F(32,3) - 0F(32,4) - 0F(32,5) - V(1,3) <= 0
V(32,4) - 0F(32,1) - 0F(32,2) - 0F(32,3) - 1F(32,4) - 0F(32,5) - V(1,4) <= 0
V(32,5) - 0F(32,1) - 0F(32,2) - 0F(32,3) - 0F(32,4) - 1F(32,5) - V(1,5) <= 0
V(28,1) - 1F(28,1) - 0F(28,2) - 0F(28,3) - 0F(28,4) - 0F(28,5) - V(33,1) <= 0
V(28,2) - 0F(28,1) - 1F(28,2) - 0F(28,3) - 0F(28,4) - 0F(28,5) - V(33,2) <= 0
V(28,3) - 0F(28,1) - 0F(28,2) - 1F(28,3) - 0F(28,4) - 0F(28,5) - V(33,3) <= 0
V(28,4) - 0F(28,1) - 0F(28,2) - 0F(28,3) - 1F(28,4) - 0F(28,5) - V(33,4) <= 0
V(28,5) - 0F(28,1) - 0F(28,2) - 0F(28,3) - 0F(28,4) - 1F(28,5) - V(33,5) <= 0
V(33,1) - 1F(33,1) - 0F(33,2) - 0F(33,3) - 0F(33,4) - 0F(33,5) - V(5,1) <= 0
V(33,2) - 0F(33,1) - 1F(33,2) - 0F(33,3) - 0F(33,4) - 0F(33,5) - V(5,2) <= 0
V(33,3) - 0F(33,1) - 0F(33,2) - 1F(33,3) - 0F(33,4) - 0F(33,5) - V(5,3) <= 0
V(33,4) - 0F(33,1) - 0F(33,2) - 0F(33,3) - 1F(33,4) - 0F(33,5) - V(5,4) <= 0
V(33,5) - 0F(33,1) - 0F(33,2) - 0F(33,3) - 0F(33,4) - 1F(33,5) - V(5,5) <= 0
V(10,1) - 1F(10,1) - 0F(10,2) - 0F(10,3) - 0F(10,4) - 0F(10,5) - V(34,1) <= 0
V(10,2) - 0F(10,1) - 1F(10,2) - 0F(10,3) - 0F(10,4) - 0F(10,5) - V(34,2) <= 0
V(10,3) - 0F(10,1) - 0F(10,2) - 1F(10,3) - 0F(10,4) - 0F(10,5) - V(34,3) <= 0
V(10,4) - 0F(10,1) - 0F(10,2) - 0F(10,3) - 1F(10,4) - 0F(10,5) - V(34,4) <= 0
V(10,5) - 0F(10,1) - 0F(10,2) - 0F(10,3) - 0F(10,4) - 1F(10,5) - V(34,5) <= 0
V(34,1) - 1F(34,1) - 0F(34,2) - 0F(34,3) - 0F(34,4) - 0F(34,5) - V(3,1) <= 0
V(34,2) - 0F(34,1) - 1F(34,2) - 0F(34,3) - 0F(34,4) - 0F(34,5) - V(3,2) <= 0
V(34,3) - 0F(34,1) - 0F(34,2) - 1F(34,3) - 0F(34,4) - 0F(34,5) - V(3,3) <= 0
V(34,4) - 0F(34,1) - 0F(34,2) - 0F(34,3) - 1F(34,4) - 0F(34,5) - V(3,4) <= 0
V(34,5) - 0F(34,1) - 0F(34,2) - 0F(34,3) - 0F(34,4) - 1F(34,5) - V(3,5) <= 0
V(13,1) - 1F(13,1) - 0F(13,2) - 0F(13,3) - 0F(13,4) - 0F(13,5) - V(35,1) <= 0
V(13,2) - 0F(13,1) - 1F(13,2) - 0F(13,3) - 0F(13,4) - 0F(13,5) - V(35,2) <= 0
V(13,3) - 0F(13,1) - 0F(13,2) - 1F(13,3) - 0F(13,4) - 0F(13,5) - V(35,3) <= 0
V(13,4) - 0F(13,1) - 0F(13,2) - 0F(13,3) - 1F(13,4) - 0F(13,5) - V(35,4) <= 0
V(13,5) - 0F(13,1) - 0F(13,2) - 0F(13,3) - 0F(13,4) - 1F(13,5) - V(35,5) <= 0
V(35,1) - 1F(35,1) - 0F(35,2) - 0F(35,3) - 0F(35,4) - 0F(35,5) - V(3,1) <= 0
V(35,2) - 0F(35,1) - 1F(35,2) - 0F(35,3) - 0F(35,4) - 0F(35,5) - V(3,2) <= 0
V(35,3) - 0F(35,1) - 0F(35,2) - 1F(35,3) - 0F(35,4) - 0F(35,5) - V(3,3) <= 0
V(35,4) - 0F(35,1) - 0F(35,2) - 0F(35,3) - 1F(35,4) - 0F(35,5) - V(3,4) <= 0
V(35,5) - 0F(35,1) - 0F(35,2) - 0F(35,3) - 0F(35,4) - 1F(35,5) - V(3,5) <= 0
V(6,1) - 1F(6,1) - 0F(6,2) - 0F(6,3) - 0F(6,4) - 0F(6,5) - V(0,1) <= 0
V(6,2) - 0F(6,1) - 1F(6,2) - 0F(6,3) - 0F(6,4) - 0F(6,5) - V(0,2) <= 0
V(6,3) - 0F(6,1) - 0F(6,2) - 1F(6,3) - 0F(6,4) - 0F(6,5) - V(0,3) <= 0
V(6,4) - 0F(6,1) - 0F(6,2) - 0F(6,3) - 1F(6,4) - 0F(6,5) - V(0,4) <= 0
V(6,5) - 0F(6,1) - 0F(6,2) - 0F(6,3) - 0F(6,4) - 1F(6,5) - V(0,5) <= 0
V(17,1) - 1F(17,1) - 0F(17,2) - 0F(17,3) - 0F(17,4) - 0F(17,5) - V(0,1) <= 0
V(17,2) - 0F(17,1) - 1F(17,2) - 0F(17,3) - 0F(17,4) - 0F(17,5) - V(0,2) <= 0
V(17,3) - 0F(17,1) - 0F(17,2) - 1F(17,3) - 0F(17,4) - 0F(17,5) - V(0,3) <= 0
V(17,4) - 0F(17,1) - 0F(17,2) - 0F(17,3) - 1F(17,4) - 0F(17,5) - V(0,4) <= 0
V(17,5) - 0F(17,1) - 0F(17,2) - 0F(17,3) - 0F(17,4) - 1F(17,5) - V(0,5) <= 0
V(16,1) - 1F(16,1) - 0F(16,2) - 0F(16,3) - 0F(16,4) - 0F(16,5) - V(0,1) <= 0
V(16,2) - 0F(16,1) - 1F(16,2) - 0F(16,3) - 0F(16,4) - 0F(16,5) - V(0,2) <= 0
V(16,3) - 0F(16,1) - 0F(16,2) - 1F(16,3) - 0F(16,4) - 0F(16,5) - V(0,3) <= 0
V(16,4) - 0F(16,1) - 0F(16,2) - 0F(16,3) - 1F(16,4) - 0F(16,5) - V(0,4) <= 0
V(16,5) - 0F(16,1) - 0F(16,2) - 0F(16,3) - 0F(16,4) - 1F(16,5) - V(0,5) <= 0
V(7,1) - 1F(7,1) - 0F(7,2) - 0F(7,3) - 0F(7,4) - 0F(7,5) - V(6,1) <= 0
V(7,2) - 0F(7,1) - 1F(7,2) - 0F(7,3) - 0F(7,4) - 0F(7,5) - V(6,2) <= 0
V(7,3) - 0F(7,1) - 0F(7,2) - 1F(7,3) - 0F(7,4) - 0F(7,5) - V(6,3) <= 0
V(7,4) - 0F(7,1) - 0F(7,2) - 0F(7,3) - 1F(7,4) - 0F(7,5) - V(6,4) <= 0
V(7,5) - 0F(7,1) - 0F(7,2) - 0F(7,3) - 0F(7,4) - 1F(7,5) - V(6,5) <= 0
V(8,1) - 1F(8,1) - 0F(8,2) - 0F(8,3) - 0F(8,4) - 0F(8,5) - V(7,1) <= 0
V(8,2) - 0F(8,1) - 1F(8,2) - 0F(8,3) - 0F(8,4) - 0F(8,5) - V(7,2) <= 0
V(8,3) - 0F(8,1) - 0F(8,2) - 1F(8,3) - 0F(8,4) - 0F(8,5) - V(7,3) <= 0
V(8,4) - 0F(8,1) - 0F(8,2) - 0F(8,3) - 1F(8,4) - 0F(8,5) - V(7,4) <= 0
V(8,5) - 0F(8,1) - 0F(8,2) - 0F(8,3) - 0F(8,4) - 1F(8,5) - V(7,5) <= 0
V(2,1) - 1F(2,1) - 0F(2,2) - 0F(2,3) - 0F(2,4) - 0F(2,5) - V(8,1) <= 0
V(2,2) = 0
V(2,3) - 0F(2,1) - 0F(2,2) - 1F(2,3) - 0F(2,4) - 0F(2,5) - V(8,3) <= 0
V(2,4) - 0F(2,1) - 0F(2,2) - 0F(2,3) - 1F(2,4) - 0F(2,5) - V(8,4) <= 0
V(2,5) - 0F(2,1) - 0F(2,2) - 0F(2,3) - 0F(2,4) - 1F(2,5) - V(8,5) <= 0
V(9,1) - 1F(9,1) - 0F(9,2) - 0F(9,3) - 0F(9,4) - 0F(9,5) - V(2,1) <= 0
V(9,2) - 0F(9,1) - 1F(9,2) - 0F(9,3) - 0F(9,4) - 0F(9,5) - V(2,2) <= 0
V(9,3) - 0F(9,1) - 0F(9,2) - 1F(9,3) - 0F(9,4) - 0F(9,5) - V(2,3) <= 0
V(9,4) - 0F(9,1) - 0F(9,2) - 0F(9,3) - 1F(9,4) - 0F(9,5) - V(2,4) <= 0
V(9,5) - 0F(9,1) - 0F(9,2) - 0F(9,3) - 0F(9,4) - 1F(9,5) - V(2,5) <= 0
V(10,1) - 1F(10,1) - 0F(10,2) - 0F(10,3) - 0F(10,4) - 0F(10,5) - V(9,1) <= 0
V(10,2) - 0F(10,1) - 1F(10,2) - 0F(10,3) - 0F(10,4) - 0F(10,5) - V(9,2) <= 0
V(10,3) - 0F(10,1) - 0F(10,2) - 1F(10,3) - 0F(10,4) - 0F(10,5) - V(9,3) <= 0
V(10,4) - 0F(10,1) - 0F(10,2) - 0F(10,3) - 1F(10,4) - 0F(10,5) - V(9,4) <= 0
V(10,5) - 0F(10,1) - 0F(10,2) - 0F(10,3) - 0F(10,4) - 1F(10,5) - V(9,5) <= 0
V(11,1) - 1F(11,1) - 0F(11,2) - 0F(11,3) - 0F(11,4) - 0F(11,5) - V(10,1) <= 0
V(11,2) - 0F(11,1) - 1F(11,2) - 0F(11,3) - 0F(11,4) - 0F(11,5) - V(10,2) <= 0
V(11,3) - 0F(11,1) - 0F(11,2) - 1F(11,3) - 0F(11,4) - 0F(11,5) - V(10,3) <= 0
V(11,4) - 0F(11,1) - 0F(11,2) - 0F(11,3) - 1F(11,4) - 0F(11,5) - V(10,4) <= 0
V(11,5) - 0F(11,1) - 0F(11,2) - 0F(11,3) - 0F(11,4) - 1F(11,5) - V(10,5) <= 0
V(12,1) - 1F(12,1) - 0F(12,2) - 0F(12,3) - 0F(12,4) - 0F(12,5) - V(11,1) <= 0
V(12,2) - 0F(12,1) - 1F(12,2) - 0F(12,3) - 0F(12,4) - 0F(12,5) - V(11,2) <= 0
V(12,3) - 0F(12,1) - 0F(12,2) - 1F(12,3) - 0F(12,4) - 0F(12,5) - V(11,3) <= 0
V(12,4) - 0F(12,1) - 0F(12,2) - 0F(12,3) - 1F(12,4) - 0F(12,5) - V(11,4) <= 0
V(12,5) - 0F(12,1) - 0F(12,2) - 0F(12,3) - 0F(12,4) - 1F(12,5) - V(11,5) <= 0
V(13,1) - 1F(13,1) - 0F(13,2) - 0F(13,3) - 0F(13,4) - 0F(13,5) - V(12,1) <= 0
V(13,2) - 0F(13,1) - 1F(13,2) - 0F(13,3) - 0F(13,4) - 0F(13,5) - V(12,2) <= 0
V(13,3) - 0F(13,1) - 0F(13,2) - 1F(13,3) - 0F(13,4) - 0F(13,5) - V(12,3) <= 0
V(13,4) - 0F(13,1) - 0F(13,2) - 0F(13,3) - 1F(13,4) - 0F(13,5) - V(12,4) <= 0
V(13,5) - 0F(13,1) - 0F(13,2) - 0F(13,3) - 0F(13,4) - 1F(13,5) - V(12,5) <= 0
V(4,1) - 1F(4,1) - 0F(4,2) - 0F(4,3) - 0F(4,4) - 0F(4,5) - V(13,1) <= 0
V(4,2) - 0F(4,1) - 1F(4,2) - 0F(4,3) - 0F(4,4) - 0F(4,5) - V(13,2) <= 0
V(4,3) - 0F(4,1) - 0F(4,2) - 1F(4,3) - 0F(4,4) - 0F(4,5) - V(13,3) <= 0
V(4,4) = 0
V(4,5) - 0F(4,1) - 0F(4,2) - 0F(4,3) - 0F(4,4) - 1F(4,5) - V(13,5) <= 0
V(18,1) - 1F(18,1) - 0F(18,2) - 0F(18,3) - 0F(18,4) - 0F(18,5) - V(17,1) <= 0
V(18,2) - 0F(18,1) - 1F(18,2) - 0F(18,3) - 0F(18,4) - 0F(18,5) - V(17,2) <= 0
V(18,3) - 0F(18,1) - 0F(18,2) - 1F(18,3) - 0F(18,4) - 0F(18,5) - V(17,3) <= 0
V(18,4) - 0F(18,1) - 0F(18,2) - 0F(18,3) - 1F(18,4) - 0F(18,5) - V(17,4) <= 0
V(18,5) - 0F(18,1) - 0F(18,2) - 0F(18,3) - 0F(18,4) - 1F(18,5) - V(17,5) <= 0
V(19,1) - 1F(19,1) - 0F(19,2) - 0F(19,3) - 0F(19,4) - 0F(19,5) - V(18,1) <= 0
V(19,2) - 0F(19,1) - 1F(19,2) - 0F(19,3) - 0F(19,4) - 0F(19,5) - V(18,2) <= 0
V(19,3) - 0F(19,1) - 0F(19,2) - 1F(19,3) - 0F(19,4) - 0F(19,5) - V(18,3) <= 0
V(19,4) - 0F(19,1) - 0F(19,2) - 0F(19,3) - 1F(19,4) - 0F(19,5) - V(18,4) <= 0
V(19,5) - 0F(19,1) - 0F(19,2) - 0F(19,3) - 0F(19,4) - 1F(19,5) - V(18,5) <= 0
V(20,1) - 1F(20,1) - 0F(20,2) - 0F(20,3) - 0F(20,4) - 0F(20,5) - V(19,1) <= 0
V(20,2) - 0F(20,1) - 1F(20,2) - 0F(20,3) - 0F(20,4) - 0F(20,5) - V(19,2) <= 0
V(20,3) - 0F(20,1) - 0F(20,2) - 1F(20,3) - 0F(20,4) - 0F(20,5) - V(19,3) <= 0
V(20,4) - 0F(20,1) - 0F(20,2) - 0F(20,3) - 1F(20,4) - 0F(20,5) - V(19,4) <= 0
V(20,5) - 0F(20,1) - 0F(20,2) - 0F(20,3) - 0F(20,4) - 1F(20,5) - V(19,5) <= 0
V(23,1) - 1F(23,1) - 0F(23,2) - 0F(23,3) - 0F(23,4) - 0F(23,5) - V(19,1) <= 0
V(23,2) - 0F(23,1) - 1F(23,2) - 0F(23,3) - 0F(23,4) - 0F(23,5) - V(19,2) <= 0
V(23,3) - 0F(23,1) - 0F(23,2) - 1F(23,3) - 0F(23,4) - 0F(23,5) - V(19,3) <= 0
V(23,4) - 0F(23,1) - 0F(23,2) - 0F(23,3) - 1F(23,4) - 0F(23,5) - V(19,4) <= 0
V(23,5) - 0F(23,1) - 0F(23,2) - 0F(23,3) - 0F(23,4) - 1F(23,5) - V(19,5) <= 0
V(21,1) - 1F(21,1) - 0F(21,2) - 0F(21,3) - 0F(21,4) - 0F(21,5) - V(20,1) <= 0
V(21,2) - 0F(21,1) - 1F(21,2) - 0F(21,3) - 0F(21,4) - 0F(21,5) - V(20,2) <= 0
V(21,3) - 0F(21,1) - 0F(21,2) - 1F(21,3) - 0F(21,4) - 0F(21,5) - V(20,3) <= 0
V(21,4) - 0F(21,1) - 0F(21,2) - 0F(21,3) - 1F(21,4) - 0F(21,5) - V(20,4) <= 0
V(21,5) - 0F(21,1) - 0F(21,2) - 0F(21,3) - 0F(21,4) - 1F(21,5) - V(20,5) <= 0
V(1,1) = 0
V(1,2) - 0F(1,1) - 1F(1,2) - 0F(1,3) - 0F(1,4) - 0F(1,5) - V(21,2) <= 0
V(1,3) - 0F(1,1) - 0F(1,2) - 1F(1,3) - 0F(1,4) - 0F(1,5) - V(21,3) <= 0
V(1,4) - 0F(1,1) - 0F(1,2) - 0F(1,3) - 1F(1,4) - 0F(1,5) - V(21,4) <= 0
V(1,5) - 0F(1,1) - 0F(1,2) - 0F(1,3) - 0F(1,4) - 1F(1,5) - V(21,5) <= 0
V(22,1) - 1F(22,1) - 0F(22,2) - 0F(22,3) - 0F(22,4) - 0F(22,5) - V(21,1) <= 0
V(22,2) - 0F(22,1) - 1F(22,2) - 0F(22,3) - 0F(22,4) - 0F(22,5) - V(21,2) <= 0
V(22,3) - 0F(22,1) - 0F(22,2) - 1F(22,3) - 0F(22,4) - 0F(22,5) - V(21,3) <= 0
V(22,4) - 0F(22,1) - 0F(22,2) - 0F(22,3) - 1F(22,4) - 0F(22,5) - V(21,4) <= 0
V(22,5) - 0F(22,1) - 0F(22,2) - 0F(22,3) - 0F(22,4) - 1F(22,5) - V(21,5) <= 0
V(23,1) - 1F(23,1) - 0F(23,2) - 0F(23,3) - 0F(23,4) - 0F(23,5) - V(22,1) <= 0
V(23,2) - 0F(23,1) - 1F(23,2) - 0F(23,3) - 0F(23,4) - 0F(23,5) - V(22,2) <= 0
V(23,3) - 0F(23,1) - 0F(23,2) - 1F(23,3) - 0F(23,4) - 0F(23,5) - V(22,3) <= 0
V(23,4) - 0F(23,1) - 0F(23,2) - 0F(23,3) - 1F(23,4) - 0F(23,5) - V(22,4) <= 0
V(23,5) - 0F(23,1) - 0F(23,2) - 0F(23,3) - 0F(23,4) - 1F(23,5) - V(22,5) <= 0
V(29,1) - 1F(29,1) - 0F(29,2) - 0F(29,3) - 0F(29,4) - 0F(29,5) - V(23,1) <= 0
V(29,2) - 0F(29,1) - 1F(29,2) - 0F(29,3) - 0F(29,4) - 0F(29,5) - V(23,2) <= 0
V(29,3) - 0F(29,1) - 0F(29,2) - 1F(29,3) - 0F(29,4) - 0F(29,5) - V(23,3) <= 0
V(29,4) - 0F(29,1) - 0F(29,2) - 0F(29,3) - 1F(29,4) - 0F(29,5) - V(23,4) <= 0
V(29,5) - 0F(29,1) - 0F(29,2) - 0F(29,3) - 0F(29,4) - 1F(29,5) - V(23,5) <= 0
V(24,1) - 1F(24,1) - 0F(24,2) - 0F(24,3) - 0F(24,4) - 0F(24,5) - V(17,1) <= 0
V(24,2) - 0F(24,1) - 1F(24,2) - 0F(24,3) - 0F(24,4) - 0F(24,5) - V(17,2) <= 0
V(24,3) - 0F(24,1) - 0F(24,2) - 1F(24,3) - 0F(24,4) - 0F(24,5) - V(17,3) <= 0
V(24,4) - 0F(24,1) - 0F(24,2) - 0F(24,3) - 1F(24,4) - 0F(24,5) - V(17,4) <= 0
V(24,5) - 0F(24,1) - 0F(24,2) - 0F(24,3) - 0F(24,4) - 1F(24,5) - V(17,5) <= 0
V(25,1) - 1F(25,1) - 0F(25,2) - 0F(25,3) - 0F(25,4) - 0F(25,5) - V(24,1) <= 0
V(25,2) - 0F(25,1) - 1F(25,2) - 0F(25,3) - 0F(25,4) - 0F(25,5) - V(24,2) <= 0
V(25,3) - 0F(25,1) - 0F(25,2) - 1F(25,3) - 0F(25,4) - 0F(25,5) - V(24,3) <= 0
V(25,4) - 0F(25,1) - 0F(25,2) - 0F(25,3) - 1F(25,4) - 0F(25,5) - V(24,4) <= 0
V(25,5) - 0F(25,1) - 0F(25,2) - 0F(25,3) - 0F(25,4) - 1F(25,5) - V(24,5) <= 0
V(29,1) - 1F(29,1) - 0F(29,2) - 0F(29,3) - 0F(29,4) - 0F(29,5) - V(25,1) <= 0
V(29,2) - 0F(29,1) - 1F(29,2) - 0F(29,3) - 0F(29,4) - 0F(29,5) - V(25,2) <= 0
V(29,3) - 0F(29,1) - 0F(29,2) - 1F(29,3) - 0F(29,4) - 0F(29,5) - V(25,3) <= 0
V(29,4) - 0F(29,1) - 0F(29,2) - 0F(29,3) - 1F(29,4) - 0F(29,5) - V(25,4) <= 0
V(29,5) - 0F(29,1) - 0F(29,2) - 0F(29,3) - 0F(29,4) - 1F(29,5) - V(25,5) <= 0
V(28,1) - 1F(28,1) - 0F(28,2) - 0F(28,3) - 0F(28,4) - 0F(28,5) - V(29,1) <= 0
V(28,2) - 0F(28,1) - 1F(28,2) - 0F(28,3) - 0F(28,4) - 0F(28,5) - V(29,2) <= 0
V(28,3) - 0F(28,1) - 0F(28,2) - 1F(28,3) - 0F(28,4) - 0F(28,5) - V(29,3) <= 0
V(28,4) - 0F(28,1) - 0F(28,2) - 0F(28,3) - 1F(28,4) - 0F(28,5) - V(29,4) <= 0
V(28,5) - 0F(28,1) - 0F(28,2) - 0F(28,3) - 0F(28,4) - 1F(28,5) - V(29,5) <= 0
V(27,1) - 1F(27,1) - 0F(27,2) - 0F(27,3) - 0F(27,4) - 0F(27,5) - V(28,1) <= 0
V(27,2) - 0F(27,1) - 1F(27,2) - 0F(27,3) - 0F(27,4) - 0F(27,5) - V(28,2) <= 0
V(27,3) - 0F(27,1) - 0F(27,2) - 1F(27,3) - 0F(27,4) - 0F(27,5) - V(28,3) <= 0
V(27,4) - 0F(27,1) - 0F(27,2) - 0F(27,3) - 1F(27,4) - 0F(27,5) - V(28,4) <= 0
V(27,5) - 0F(27,1) - 0F(27,2) - 0F(27,3) - 0F(27,4) - 1F(27,5) - V(28,5) <= 0
V(26,1) - 1F(26,1) - 0F(26,2) - 0F(26,3) - 0F(26,4) - 0F(26,5) - V(27,1) <= 0
V(26,2) - 0F(26,1) - 1F(26,2) - 0F(26,3) - 0F(26,4) - 0F(26,5) - V(27,2) <= 0
V(26,3) - 0F(26,1) - 0F(26,2) - 1F(26,3) - 0F(26,4) - 0F(26,5) - V(27,3) <= 0
V(26,4) - 0F(26,1) - 0F(26,2) - 0F(26,3) - 1F(26,4) - 0F(26,5) - V(27,4) <= 0
V(26,5) - 0F(26,1) - 0F(26,2) - 0F(26,3) - 0F(26,4) - 1F(26,5) - V(27,5) <= 0
V(5,1) - 1F(5,1) - 0F(5,2) - 0F(5,3) - 0F(5,4) - 0F(5,5) - V(27,1) <= 0
V(5,2) - 0F(5,1) - 1F(5,2) - 0F(5,3) - 0F(5,4) - 0F(5,5) - V(27,2) <= 0
V(5,3) - 0F(5,1) - 0F(5,2) - 1F(5,3) - 0F(5,4) - 0F(5,5) - V(27,3) <= 0
V(5,4) - 0F(5,1) - 0F(5,2) - 0F(5,3) - 1F(5,4) - 0F(5,5) - V(27,4) <= 0
V(5,5) = 0
V(15,1) - 1F(15,1) - 0F(15,2) - 0F(15,3) - 0F(15,4) - 0F(15,5) - V(16,1) <= 0
V(15,2) - 0F(15,1) - 1F(15,2) - 0F(15,3) - 0F(15,4) - 0F(15,5) - V(16,2) <= 0
V(15,3) - 0F(15,1) - 0F(15,2) - 1F(15,3) - 0F(15,4) - 0F(15,5) - V(16,3) <= 0
V(15,4) - 0F(15,1) - 0F(15,2) - 0F(15,3) - 1F(15,4) - 0F(15,5) - V(16,4) <= 0
V(15,5) - 0F(15,1) - 0F(15,2) - 0F(15,3) - 0F(15,4) - 1F(15,5) - V(16,5) <= 0
V(14,1) - 1F(14,1) - 0F(14,2) - 0F(14,3) - 0F(14,4) - 0F(14,5) - V(15,1) <= 0
V(14,2) - 0F(14,1) - 1F(14,2) - 0F(14,3) - 0F(14,4) - 0F(14,5) - V(15,2) <= 0
V(14,3) - 0F(14,1) - 0F(14,2) - 1F(14,3) - 0F(14,4) - 0F(14,5) - V(15,3) <= 0
V(14,4) - 0F(14,1) - 0F(14,2) - 0F(14,3) - 1F(14,4) - 0F(14,5) - V(15,4) <= 0
V(14,5) - 0F(14,1) - 0F(14,2) - 0F(14,3) - 0F(14,4) - 1F(14,5) - V(15,5) <= 0
V(4,1) - 1F(4,1) - 0F(4,2) - 0F(4,3) - 0F(4,4) - 0F(4,5) - V(14,1) <= 0
V(4,2) - 0F(4,1) - 1F(4,2) - 0F(4,3) - 0F(4,4) - 0F(4,5) - V(14,2) <= 0
V(4,3) - 0F(4,1) - 0F(4,2) - 1F(4,3) - 0F(4,4) - 0F(4,5) - V(14,3) <= 0
V(4,4) = 0
V(4,5) - 0F(4,1) - 0F(4,2) - 0F(4,3) - 0F(4,4) - 1F(4,5) - V(14,5) <= 0
V(31,1) - 1F(31,1) - 0F(31,2) - 0F(31,3) - 0F(31,4) - 0F(31,5) - V(28,1) <= 0
V(31,2) - 0F(31,1) - 1F(31,2) - 0F(31,3) - 0F(31,4) - 0F(31,5) - V(28,2) <= 0
V(31,3) - 0F(31,1) - 0F(31,2) - 1F(31,3) - 0F(31,4) - 0F(31,5) - V(28,3) <= 0
V(31,4) - 0F(31,1) - 0F(31,2) - 0F(31,3) - 1F(31,4) - 0F(31,5) - V(28,4) <= 0
V(31,5) - 0F(31,1) - 0F(31,2) - 0F(31,3) - 0F(31,4) - 1F(31,5) - V(28,5) <= 0
V(4,1) - 1F(4,1) - 0F(4,2) - 0F(4,3) - 0F(4,4) - 0F(4,5) - V(31,1) <= 0
V(4,2) - 0F(4,1) - 1F(4,2) - 0F(4,3) - 0F(4,4) - 0F(4,5) - V(31,2) <= 0
V(4,3) - 0F(4,1) - 0F(4,2) - 1F(4,3) - 0F(4,4) - 0F(4,5) - V(31,3) <= 0
V(4,4) = 0
V(4,5) - 0F(4,1) - 0F(4,2) - 0F(4,3) - 0F(4,4) - 1F(4,5) - V(31,5) <= 0
V(30,1) - 1F(30,1) - 0F(30,2) - 0F(30,3) - 0F(30,4) - 0F(30,5) - V(22,1) <= 0
V(30,2) - 0F(30,1) - 1F(30,2) - 0F(30,3) - 0F(30,4) - 0F(30,5) - V(22,2) <= 0
V(30,3) - 0F(30,1) - 0F(30,2) - 1F(30,3) - 0F(30,4) - 0F(30,5) - V(22,3) <= 0
V(30,4) - 0F(30,1) - 0F(30,2) - 0F(30,3) - 1F(30,4) - 0F(30,5) - V(22,4) <= 0
V(30,5) - 0F(30,1) - 0F(30,2) - 0F(30,3) - 0F(30,4) - 1F(30,5) - V(22,5) <= 0
V(2,1) - 1F(2,1) - 0F(2,2) - 0F(2,3) - 0F(2,4) - 0F(2,5) - V(30,1) <= 0
V(2,2) = 0
V(2,3) - 0F(2,1) - 0F(2,2) - 1F(2,3) - 0F(2,4) - 0F(2,5) - V(30,3) <= 0
V(2,4) - 0F(2,1) - 0F(2,2) - 0F(2,3) - 1F(2,4) - 0F(2,5) - V(30,4) <= 0
V(2,5) - 0F(2,1) - 0F(2,2) - 0F(2,3) - 0F(2,4) - 1F(2,5) - V(30,5) <= 0
V(3,1) - 1F(3,1) - 0F(3,2) - 0F(3,3) - 0F(3,4) - 0F(3,5) - V(11,1) <= 0
V(3,2) - 0F(3,1) - 1F(3,2) - 0F(3,3) - 0F(3,4) - 0F(3,5) - V(11,2) <= 0
V(3,3) = 0
V(3,4) - 0F(3,1) - 0F(3,2) - 0F(3,3) - 1F(3,4) - 0F(3,5) - V(11,4) <= 0
V(3,5) - 0F(3,1) - 0F(3,2) - 0F(3,3) - 0F(3,4) - 1F(3,5) - V(11,5) <= 0
V(32,1) - 1F(32,1) - 0F(32,2) - 0F(32,3) - 0F(32,4) - 0F(32,5) - V(22,1) <= 0
V(32,2) - 0F(32,1) - 1F(32,2) - 0F(32,3) - 0F(32,4) - 0F(32,5) - V(22,2) <= 0
V(32,3) - 0F(32,1) - 0F(32,2) - 1F(32,3) - 0F(32,4) - 0F(32,5) - V(22,3) <= 0
V(32,4) - 0F(32,1) - 0F(32,2) - 0F(32,3) - 1F(32,4) - 0F(32,5) - V(22,4) <= 0
V(32,5) - 0F(32,1) - 0F(32,2) - 0F(32,3) - 0F(32,4) - 1F(32,5) - V(22,5) <= 0
V(1,1) = 0
V(1,2) - 0F(1,1) - 1F(1,2) - 0F(1,3) - 0F(1,4) - 0F(1,5) - V(32,2) <= 0
V(1,3) - 0F(1,1) - 0F(1,2) - 1F(1,3) - 0F(1,4) - 0F(1,5) - V(32,3) <= 0
V(1,4) - 0F(1,1) - 0F(1,2) - 0F(1,3) - 1F(1,4) - 0F(1,5) - V(32,4) <= 0
V(1,5) - 0F(1,1) - 0F(1,2) - 0F(1,3) - 0F(1,4) - 1F(1,5) - V(32,5) <= 0
V(33,1) - 1F(33,1) - 0F(33,2) - 0F(33,3) - 0F(33,4) - 0F(33,5) - V(28,1) <= 0
V(33,2) - 0F(33,1) - 1F(33,2) - 0F(33,3) - 0F(33,4) - 0F(33,5) - V(28,2) <= 0
V(33,3) - 0F(33,1) - 0F(33,2) - 1F(33,3) - 0F(33,4) - 0F(33,5) - V(28,3) <= 0
V(33,4) - 0F(33,1) - 0F(33,2) - 0F(33,3) - 1F(33,4) - 0F(33,5) - V(28,4) <= 0
V(33,5) - 0F(33,1) - 0F(33,2) - 0F(33,3) - 0F(33,4) - 1F(33,5) - V(28,5) <= 0
V(5,1) - 1F(5,1) - 0F(5,2) - 0F(5,3) - 0F(5,4) - 0F(5,5) - V(33,1) <= 0
V(5,2) - 0F(5,1) - 1F(5,2) - 0F(5,3) - 0F(5,4) - 0F(5,5) - V(33,2) <= 0
V(5,3) - 0F(5,1) - 0F(5,2) - 1F(5,3) - 0F(5,4) - 0F(5,5) - V(33,3) <= 0
V(5,4) - 0F(5,1) - 0F(5,2) - 0F(5,3) - 1F(5,4) - 0F(5,5) - V(33,4) <= 0
V(5,5) = 0
V(34,1) - 1F(34,1) - 0F(34,2) - 0F(34,3) - 0F(34,4) - 0F(34,5) - V(10,1) <= 0
V(34,2) - 0F(34,1) - 1F(34,2) - 0F(34,3) - 0F(34,4) - 0F(34,5) - V(10,2) <= 0
V(34,3) - 0F(34,1) - 0F(34,2) - 1F(34,3) - 0F(34,4) - 0F(34,5) - V(10,3) <= 0
V(34,4) - 0F(34,1) - 0F(34,2) - 0F(34,3) - 1F(34,4) - 0F(34,5) - V(10,4) <= 0
V(34,5) - 0F(34,1) - 0F(34,2) - 0F(34,3) - 0F(34,4) - 1F(34,5) - V(10,5) <= 0
V(3,1) - 1F(3,1) - 0F(3,2) - 0F(3,3) - 0F(3,4) - 0F(3,5) - V(34,1) <= 0
V(3,2) - 0F(3,1) - 1F(3,2) - 0F(3,3) - 0F(3,4) - 0F(3,5) - V(34,2) <= 0
V(3,3) = 0
V(3,4) - 0F(3,1) - 0F(3,2) - 0F(3,3) - 1F(3,4) - 0F(3,5) - V(34,4) <= 0
V(3,5) - 0F(3,1) - 0F(3,2) - 0F(3,3) - 0F(3,4) - 1F(3,5) - V(34,5) <= 0
V(35,1) - 1F(35,1) - 0F(35,2) - 0F(35,3) - 0F(35,4) - 0F(35,5) - V(13,1) <= 0
V(35,2) - 0F(35,1) - 1F(35,2) - 0F(35,3) - 0F(35,4) - 0F(35,5) - V(13,2) <= 0
V(35,3) - 0F(35,1) - 0F(35,2) - 1F(35,3) - 0F(35,4) - 0F(35,5) - V(13,3) <= 0
V(35,4) - 0F(35,1) - 0F(35,2) - 0F(35,3) - 1F(35,4) - 0F(35,5) - V(13,4) <= 0
V(35,5) - 0F(35,1) - 0F(35,2) - 0F(35,3) - 0F(35,4) - 1F(35,5) - V(13,5) <= 0
V(3,1) - 1F(3,1) - 0F(3,2) - 0F(3,3) - 0F(3,4) - 0F(3,5) - V(35,1) <= 0
V(3,2) - 0F(3,1) - 1F(3,2) - 0F(3,3) - 0F(3,4) - 0F(3,5) - V(35,2) <= 0
V(3,3) = 0
V(3,4) - 0F(3,1) - 0F(3,2) - 0F(3,3) - 1F(3,4) - 0F(3,5) - V(35,4) <= 0
V(3,5) - 0F(3,1) - 0F(3,2) - 0F(3,3) - 0F(3,4) - 1F(3,5) - V(35,5) <= 0
F(0,1) + F(0,2) + F(0,3) + F(0,4) + F(0,5) = 1
F(1,1) + F(1,2) + F(1,3) + F(1,4) + F(1,5) = 1
F(2,1) + F(2,2) + F(2,3) + F(2,4) + F(2,5) = 1
F(3,1) + F(3,2) + F(3,3) + F(3,4) + F(3,5) = 1
F(4,1) + F(4,2) + F(4,3) + F(4,4) + F(4,5) = 1
F(5,1) + F(5,2) + F(5,3) + F(5,4) + F(5,5) = 1
F(6,1) + F(6,2) + F(6,3) + F(6,4) + F(6,5) = 1
F(7,1) + F(7,2) + F(7,3) + F(7,4) + F(7,5) = 1
F(8,1) + F(8,2) + F(8,3) + F(8,4) + F(8,5) = 1
F(9,1) + F(9,2) + F(9,3) + F(9,4) + F(9,5) = 1
F(10,1) + F(10,2) + F(10,3) + F(10,4) + F(10,5) = 1
F(11,1) + F(11,2) + F(11,3) + F(11,4) + F(11,5) = 1
F(12,1) + F(12,2) + F(12,3) + F(12,4) + F(12,5) = 1
F(13,1) + F(13,2) + F(13,3) + F(13,4) + F(13,5) = 1
F(14,1) + F(14,2) + F(14,3) + F(14,4) + F(14,5) = 1
F(15,1) + F(15,2) + F(15,3) + F(15,4) + F(15,5) = 1
F(16,1) + F(16,2) + F(16,3) + F(16,4) + F(16,5) = 1
F(17,1) + F(17,2) + F(17,3) + F(17,4) + F(17,5) = 1
F(18,1) + F(18,2) + F(18,3) + F(18,4) + F(18,5) = 1
F(19,1) + F(19,2) + F(19,3) + F(19,4) + F(19,5) = 1
F(20,1) + F(20,2) + F(20,3) + F(20,4) + F(20,5) = 1
F(21,1) + F(21,2) + F(21,3) + F(21,4) + F(21,5) = 1
F(22,1) + F(22,2) + F(22,3) + F(22,4) + F(22,5) = 1
F(23,1) + F(23,2) + F(23,3) + F(23,4) + F(23,5) = 1
F(24,1) + F(24,2) + F(24,3) + F(24,4) + F(24,5) = 1
F(25,1) + F(25,2) + F(25,3) + F(25,4) + F(25,5) = 1
F(26,1) + F(26,2) + F(26,3) + F(26,4) + F(26,5) = 1
F(27,1) + F(27,2) + F(27,3) + F(27,4) + F(27,5) = 1
F(28,1) + F(28,2) + F(28,3) + F(28,4) + F(28,5) = 1
F(29,1) + F(29,2) + F(29,3) + F(29,4) + F(29,5) = 1
F(30,1) + F(30,2) + F(30,3) + F(30,4) + F(30,5) = 1
F(31,1) + F(31,2) + F(31,3) + F(31,4) + F(31,5) = 1
F(32,1) + F(32,2) + F(32,3) + F(32,4) + F(32,5) = 1
F(33,1) + F(33,2) + F(33,3) + F(33,4) + F(33,5) = 1
F(34,1) + F(34,2) + F(34,3) + F(34,4) + F(34,5) = 1
F(35,1) + F(35,2) + F(35,3) + F(35,4) + F(35,5) = 1
bounds
F(0,1) >= 0
F(0,2) >= 0
F(0,3) >= 0
F(0,4) >= 0
F(0,5) >= 0
F(1,1) >= 0
F(1,2) >= 0
F(1,3) >= 0
F(1,4) >= 0
F(1,5) >= 0
F(2,1) >= 0
F(2,2) >= 0
F(2,3) >= 0
F(2,4) >= 0
F(2,5) >= 0
F(3,1) >= 0
F(3,2) >= 0
F(3,3) >= 0
F(3,4) >= 0
F(3,5) >= 0
F(4,1) >= 0
F(4,2) >= 0
F(4,3) >= 0
F(4,4) >= 0
F(4,5) >= 0
F(5,1) >= 0
F(5,2) >= 0
F(5,3) >= 0
F(5,4) >= 0
F(5,5) >= 0
F(6,1) >= 0
F(6,2) >= 0
F(6,3) >= 0
F(6,4) >= 0
F(6,5) >= 0
F(7,1) >= 0
F(7,2) >= 0
F(7,3) >= 0
F(7,4) >= 0
F(7,5) >= 0
F(8,1) >= 0
F(8,2) >= 0
F(8,3) >= 0
F(8,4) >= 0
F(8,5) >= 0
F(9,1) >= 0
F(9,2) >= 0
F(9,3) >= 0
F(9,4) >= 0
F(9,5) >= 0
F(10,1) >= 0
F(10,2) >= 0
F(10,3) >= 0
F(10,4) >= 0
F(10,5) >= 0
F(11,1) >= 0
F(11,2) >= 0
F(11,3) >= 0
F(11,4) >= 0
F(11,5) >= 0
F(12,1) >= 0
F(12,2) >= 0
F(12,3) >= 0
F(12,4) >= 0
F(12,5) >= 0
F(13,1) >= 0
F(13,2) >= 0
F(13,3) >= 0
F(13,4) >= 0
F(13,5) >= 0
F(14,1) >= 0
F(14,2) >= 0
F(14,3) >= 0
F(14,4) >= 0
F(14,5) >= 0
F(15,1) >= 0
F(15,2) >= 0
F(15,3) >= 0
F(15,4) >= 0
F(15,5) >= 0
F(16,1) >= 0
F(16,2) >= 0
F(16,3) >= 0
F(16,4) >= 0
F(16,5) >= 0
F(17,1) >= 0
F(17,2) >= 0
F(17,3) >= 0
F(17,4) >= 0
F(17,5) >= 0
F(18,1) >= 0
F(18,2) >= 0
F(18,3) >= 0
F(18,4) >= 0
F(18,5) >= 0
F(19,1) >= 0
F(19,2) >= 0
F(19,3) >= 0
F(19,4) >= 0
F(19,5) >= 0
F(20,1) >= 0
F(20,2) >= 0
F(20,3) >= 0
F(20,4) >= 0
F(20,5) >= 0
F(21,1) >= 0
F(21,2) >= 0
F(21,3) >= 0
F(21,4) >= 0
F(21,5) >= 0
F(22,1) >= 0
F(22,2) >= 0
F(22,3) >= 0
F(22,4) >= 0
F(22,5) >= 0
F(23,1) >= 0
F(23,2) >= 0
F(23,3) >= 0
F(23,4) >= 0
F(23,5) >= 0
F(24,1) >= 0
F(24,2) >= 0
F(24,3) >= 0
F(24,4) >= 0
F(24,5) >= 0
F(25,1) >= 0
F(25,2) >= 0
F(25,3) >= 0
F(25,4) >= 0
F(25,5) >= 0
F(26,1) >= 0
F(26,2) >= 0
F(26,3) >= 0
F(26,4) >= 0
F(26,5) >= 0
F(27,1) >= 0
F(27,2) >= 0
F(27,3) >= 0
F(27,4) >= 0
F(27,5) >= 0
F(28,1) >= 0
F(28,2) >= 0
F(28,3) >= 0
F(28,4) >= 0
F(28,5) >= 0
F(29,1) >= 0
F(29,2) >= 0
F(29,3) >= 0
F(29,4) >= 0
F(29,5) >= 0
F(30,1) >= 0
F(30,2) >= 0
F(30,3) >= 0
F(30,4) >= 0
F(30,5) >= 0
F(31,1) >= 0
F(31,2) >= 0
F(31,3) >= 0
F(31,4) >= 0
F(31,5) >= 0
F(32,1) >= 0
F(32,2) >= 0
F(32,3) >= 0
F(32,4) >= 0
F(32,5) >= 0
F(33,1) >= 0
F(33,2) >= 0
F(33,3) >= 0
F(33,4) >= 0
F(33,5) >= 0
F(34,1) >= 0
F(34,2) >= 0
F(34,3) >= 0
F(34,4) >= 0
F(34,5) >= 0
F(35,1) >= 0
F(35,2) >= 0
F(35,3) >= 0
F(35,4) >= 0
F(35,5) >= 0
V(0,5) free
V(1,5) free
V(2,5) free
V(3,5) free
V(4,5) free
V(5,5) free
V(6,5) free
V(7,5) free
V(8,5) free
V(9,5) free
V(10,5) free
V(11,5) free
V(12,5) free
V(13,5) free
V(14,5) free
V(15,5) free
V(16,5) free
V(17,5) free
V(18,5) free
V(19,5) free
V(20,5) free
V(21,5) free
V(22,5) free
V(23,5) free
V(24,5) free
V(25,5) free
V(26,5) free
V(27,5) free
V(28,5) free
V(29,5) free
V(30,5) free
V(31,5) free
V(32,5) free
V(33,5) free
V(34,5) free
V(35,5) free
end